p cnf 450 1593
1 -2 -3 0
2 -1 -3 0
-1 -2 3 0
2 1 3 0
-4 -3 0
2 -5 -6 0
5 -2 -6 0
6 -2 -5 0
6 2 5 0
-7 6 0
-1 8 0
-5 8 0
1 5 -8 0
2 -8 -9 0
-2 8 -9 0
-2 -8 9 0
2 8 9 0
-10 9 0
1 11 0
5 11 0
-1 -5 -11 0
-2 11 -12 0
2 -11 -12 0
12 -11 -2 0
2 11 12 0
-13 -12 0
5 -14 -15 0
14 -5 -15 0
-5 -14 15 0
5 14 15 0
-4 -15 0
-1 14 -16 0
1 -14 -16 0
16 -14 -1 0
16 14 1 0
-7 16 0
14 -8 -17 0
8 -14 -17 0
-8 -14 17 0
14 8 17 0
-10 17 0
11 -14 -18 0
14 -11 -18 0
18 -11 -14 0
14 11 18 0
-13 -18 0
19 -20 -21 0
20 -19 -21 0
-19 -20 21 0
20 19 21 0
-4 -21 0
20 -22 -23 0
22 -20 -23 0
23 -20 -22 0
23 20 22 0
-7 23 0
-19 24 0
-22 24 0
-25 24 0
-26 24 0
-27 24 0
-28 24 0
-29 24 0
30 0
20 -24 -31 0
-20 24 -31 0
-20 -24 31 0
20 24 31 0
-10 31 0
19 32 0
22 32 0
25 32 0
26 32 0
27 32 0
28 32 0
29 32 0
-33 0
-20 32 -34 0
20 -32 -34 0
34 -32 -20 0
20 32 34 0
-13 -34 0
22 -35 -36 0
35 -22 -36 0
-22 -35 36 0
22 35 36 0
-4 -36 0
35 -25 -37 0
25 -35 -37 0
37 -35 -25 0
37 35 25 0
-7 37 0
-22 38 0
-25 38 0
-26 38 0
-27 38 0
-28 38 0
-29 38 0
39 0
35 -38 -40 0
-35 38 -40 0
-35 -38 40 0
35 38 40 0
-10 40 0
22 41 0
25 41 0
26 41 0
27 41 0
28 41 0
29 41 0
-42 0
-35 41 -43 0
35 -41 -43 0
43 -41 -35 0
35 41 43 0
-13 -43 0
25 -44 -45 0
44 -25 -45 0
-25 -44 45 0
25 44 45 0
-4 -45 0
44 -26 -46 0
26 -44 -46 0
46 -44 -26 0
46 44 26 0
-7 46 0
-25 47 0
-26 47 0
-27 47 0
-28 47 0
-29 47 0
25 26 27 28 29 -47 0
44 -47 -48 0
-44 47 -48 0
-44 -47 48 0
44 47 48 0
-10 48 0
25 49 0
26 49 0
27 49 0
28 49 0
29 49 0
-50 0
-44 49 -51 0
44 -49 -51 0
51 -49 -44 0
44 49 51 0
-13 -51 0
26 -52 -53 0
52 -26 -53 0
-26 -52 53 0
26 52 53 0
-4 -53 0
52 -27 -54 0
27 -52 -54 0
54 -52 -27 0
54 52 27 0
-7 54 0
-26 55 0
-27 55 0
-28 55 0
-29 55 0
26 27 28 29 -55 0
52 -55 -56 0
-52 55 -56 0
-52 -55 56 0
52 55 56 0
-10 56 0
26 57 0
27 57 0
28 57 0
29 57 0
-58 0
-52 57 -59 0
52 -57 -59 0
59 -57 -52 0
52 57 59 0
-13 -59 0
27 -60 -61 0
60 -27 -61 0
-27 -60 61 0
27 60 61 0
-4 -61 0
60 -28 -62 0
28 -60 -62 0
62 -60 -28 0
62 60 28 0
-7 62 0
60 -55 -63 0
55 -60 -63 0
-55 -60 63 0
60 55 63 0
-10 63 0
57 -60 -64 0
60 -57 -64 0
64 -57 -60 0
60 57 64 0
-13 -64 0
28 -65 -66 0
65 -28 -66 0
-28 -65 66 0
28 65 66 0
-4 -66 0
65 -29 -67 0
29 -65 -67 0
67 -65 -29 0
67 65 29 0
-7 67 0
65 -55 -68 0
55 -65 -68 0
-55 -65 68 0
65 55 68 0
-10 68 0
57 -65 -69 0
65 -57 -69 0
69 -57 -65 0
65 57 69 0
-13 -69 0
29 -70 -71 0
70 -29 -71 0
-29 -70 71 0
29 70 71 0
-4 -71 0
-26 70 -72 0
26 -70 -72 0
72 -70 -26 0
72 70 26 0
-7 72 0
70 -55 -73 0
55 -70 -73 0
-55 -70 73 0
70 55 73 0
-10 73 0
57 -70 -74 0
70 -57 -74 0
74 -57 -70 0
70 57 74 0
-13 -74 0
75 -76 -77 0
76 -75 -77 0
-75 -76 77 0
76 75 77 0
-4 -77 0
76 -78 -79 0
78 -76 -79 0
79 -76 -78 0
79 76 78 0
-7 79 0
-75 80 0
-78 80 0
-81 80 0
-82 80 0
-83 80 0
-84 80 0
-85 80 0
86 0
76 -80 -87 0
-76 80 -87 0
-76 -80 87 0
76 80 87 0
-10 87 0
75 88 0
78 88 0
81 88 0
82 88 0
83 88 0
84 88 0
85 88 0
-89 0
-76 88 -90 0
76 -88 -90 0
90 -88 -76 0
76 88 90 0
-13 -90 0
78 -91 -92 0
91 -78 -92 0
-78 -91 92 0
78 91 92 0
-4 -92 0
91 -81 -93 0
81 -91 -93 0
93 -91 -81 0
93 91 81 0
-7 93 0
-78 94 0
-81 94 0
-82 94 0
-83 94 0
-84 94 0
-85 94 0
95 0
91 -94 -96 0
-91 94 -96 0
-91 -94 96 0
91 94 96 0
-10 96 0
78 97 0
81 97 0
82 97 0
83 97 0
84 97 0
85 97 0
-98 0
-91 97 -99 0
91 -97 -99 0
99 -97 -91 0
91 97 99 0
-13 -99 0
81 -100 -101 0
100 -81 -101 0
-81 -100 101 0
81 100 101 0
-4 -101 0
100 -82 -102 0
82 -100 -102 0
102 -100 -82 0
102 100 82 0
-7 102 0
-81 103 0
-82 103 0
-83 103 0
-84 103 0
-85 103 0
81 82 83 84 85 -103 0
100 -103 -104 0
-100 103 -104 0
-100 -103 104 0
100 103 104 0
-10 104 0
81 105 0
82 105 0
83 105 0
84 105 0
85 105 0
-106 0
-100 105 -107 0
100 -105 -107 0
107 -105 -100 0
100 105 107 0
-13 -107 0
82 -108 -109 0
108 -82 -109 0
-82 -108 109 0
82 108 109 0
-4 -109 0
108 -83 -110 0
83 -108 -110 0
110 -108 -83 0
110 108 83 0
-7 110 0
-82 111 0
-83 111 0
-84 111 0
-85 111 0
82 83 84 85 -111 0
108 -111 -112 0
-108 111 -112 0
-108 -111 112 0
108 111 112 0
-10 112 0
82 113 0
83 113 0
84 113 0
85 113 0
-114 0
-108 113 -115 0
108 -113 -115 0
115 -113 -108 0
108 113 115 0
-13 -115 0
83 -116 -117 0
116 -83 -117 0
-83 -116 117 0
83 116 117 0
-4 -117 0
116 -84 -118 0
84 -116 -118 0
118 -116 -84 0
118 116 84 0
-7 118 0
116 -111 -119 0
111 -116 -119 0
-111 -116 119 0
116 111 119 0
-10 119 0
113 -116 -120 0
116 -113 -120 0
120 -113 -116 0
116 113 120 0
-13 -120 0
84 -121 -122 0
121 -84 -122 0
-84 -121 122 0
84 121 122 0
-4 -122 0
121 -85 -123 0
85 -121 -123 0
123 -121 -85 0
123 121 85 0
-7 123 0
121 -111 -124 0
111 -121 -124 0
-111 -121 124 0
121 111 124 0
-10 124 0
113 -121 -125 0
121 -113 -125 0
125 -113 -121 0
121 113 125 0
-13 -125 0
85 -126 -127 0
126 -85 -127 0
-85 -126 127 0
85 126 127 0
-4 -127 0
-82 126 -128 0
82 -126 -128 0
128 -126 -82 0
128 126 82 0
-7 128 0
126 -111 -129 0
111 -126 -129 0
-111 -126 129 0
126 111 129 0
-10 129 0
113 -126 -130 0
126 -113 -130 0
130 -113 -126 0
126 113 130 0
-13 -130 0
131 -132 -133 0
132 -131 -133 0
-131 -132 133 0
132 131 133 0
-4 -133 0
132 -134 -135 0
134 -132 -135 0
135 -132 -134 0
135 132 134 0
-7 135 0
-131 136 0
-134 136 0
-137 136 0
131 134 137 -136 0
132 -136 -138 0
-132 136 -138 0
-132 -136 138 0
132 136 138 0
-10 138 0
131 139 0
134 139 0
137 139 0
-131 -134 -137 -139 0
-132 139 -140 0
132 -139 -140 0
140 -139 -132 0
132 139 140 0
-13 -140 0
134 -141 -142 0
141 -134 -142 0
-134 -141 142 0
134 141 142 0
-4 -142 0
141 -137 -143 0
137 -141 -143 0
143 -141 -137 0
143 141 137 0
-7 143 0
-134 144 0
-137 144 0
134 137 -144 0
141 -144 -145 0
-141 144 -145 0
-141 -144 145 0
141 144 145 0
-10 145 0
134 146 0
137 146 0
-134 -137 -146 0
-141 146 -147 0
141 -146 -147 0
147 -146 -141 0
141 146 147 0
-13 -147 0
137 -148 -149 0
148 -137 -149 0
-137 -148 149 0
137 148 149 0
-4 -149 0
148 -137 -150 0
137 -148 -150 0
150 -148 -137 0
150 148 137 0
-7 150 0
-10 150 0
-13 150 0
151 -152 -153 0
152 -151 -153 0
-151 -152 153 0
152 151 153 0
-4 -153 0
152 -154 -155 0
154 -152 -155 0
155 -152 -154 0
155 152 154 0
-7 155 0
-151 156 0
-154 156 0
-157 156 0
-158 156 0
-159 156 0
151 154 157 158 159 -156 0
152 -156 -160 0
-152 156 -160 0
-152 -156 160 0
152 156 160 0
-10 160 0
151 161 0
154 161 0
157 161 0
158 161 0
159 161 0
-162 0
-152 161 -163 0
152 -161 -163 0
163 -161 -152 0
152 161 163 0
-13 -163 0
154 -164 -165 0
164 -154 -165 0
-154 -164 165 0
154 164 165 0
-4 -165 0
164 -157 -166 0
157 -164 -166 0
166 -164 -157 0
166 164 157 0
-7 166 0
-154 167 0
-157 167 0
-158 167 0
-159 167 0
154 157 158 159 -167 0
164 -167 -168 0
-164 167 -168 0
-164 -167 168 0
164 167 168 0
-10 168 0
154 169 0
157 169 0
158 169 0
159 169 0
-170 0
-164 169 -171 0
164 -169 -171 0
171 -169 -164 0
164 169 171 0
-13 -171 0
157 -172 -173 0
172 -157 -173 0
-157 -172 173 0
157 172 173 0
-4 -173 0
172 -158 -174 0
158 -172 -174 0
174 -172 -158 0
174 172 158 0
-7 174 0
-157 175 0
-158 175 0
-159 175 0
157 158 159 -175 0
172 -175 -176 0
-172 175 -176 0
-172 -175 176 0
172 175 176 0
-10 176 0
157 177 0
158 177 0
159 177 0
-157 -158 -159 -177 0
-172 177 -178 0
172 -177 -178 0
178 -177 -172 0
172 177 178 0
-13 -178 0
158 -179 -180 0
179 -158 -180 0
-158 -179 180 0
158 179 180 0
-4 -180 0
179 -159 -181 0
159 -179 -181 0
181 -179 -159 0
181 179 159 0
-7 181 0
179 -175 -182 0
175 -179 -182 0
-175 -179 182 0
179 175 182 0
-10 182 0
177 -179 -183 0
179 -177 -183 0
183 -177 -179 0
179 177 183 0
-13 -183 0
159 -184 -185 0
184 -159 -185 0
-159 -184 185 0
159 184 185 0
-4 -185 0
-157 184 -186 0
157 -184 -186 0
186 -184 -157 0
186 184 157 0
-7 186 0
184 -175 -187 0
175 -184 -187 0
-175 -184 187 0
184 175 187 0
-10 187 0
177 -184 -188 0
184 -177 -188 0
188 -177 -184 0
184 177 188 0
-13 -188 0
189 -190 -191 0
190 -189 -191 0
-189 -190 191 0
190 189 191 0
-4 -191 0
190 -192 -193 0
192 -190 -193 0
193 -190 -192 0
193 190 192 0
-7 193 0
-189 194 0
-192 194 0
-195 194 0
-196 194 0
-197 194 0
-198 194 0
199 0
190 -194 -200 0
-190 194 -200 0
-190 -194 200 0
190 194 200 0
-10 200 0
189 201 0
192 201 0
195 201 0
196 201 0
197 201 0
198 201 0
-202 0
-190 201 -203 0
190 -201 -203 0
203 -201 -190 0
190 201 203 0
-13 -203 0
192 -204 -205 0
204 -192 -205 0
-192 -204 205 0
192 204 205 0
-4 -205 0
204 -195 -206 0
195 -204 -206 0
206 -204 -195 0
206 204 195 0
-7 206 0
-192 207 0
-195 207 0
-196 207 0
-197 207 0
-198 207 0
192 195 196 197 198 -207 0
204 -207 -208 0
-204 207 -208 0
-204 -207 208 0
204 207 208 0
-10 208 0
192 209 0
195 209 0
196 209 0
197 209 0
198 209 0
-210 0
-204 209 -211 0
204 -209 -211 0
211 -209 -204 0
204 209 211 0
-13 -211 0
195 -212 -213 0
212 -195 -213 0
-195 -212 213 0
195 212 213 0
-4 -213 0
212 -196 -214 0
196 -212 -214 0
214 -212 -196 0
214 212 196 0
-7 214 0
-195 215 0
-196 215 0
-197 215 0
-198 215 0
195 196 197 198 -215 0
212 -215 -216 0
-212 215 -216 0
-212 -215 216 0
212 215 216 0
-10 216 0
195 217 0
196 217 0
197 217 0
198 217 0
-218 0
-212 217 -219 0
212 -217 -219 0
219 -217 -212 0
212 217 219 0
-13 -219 0
196 -220 -221 0
220 -196 -221 0
-196 -220 221 0
196 220 221 0
-4 -221 0
220 -197 -222 0
197 -220 -222 0
222 -220 -197 0
222 220 197 0
-7 222 0
-196 223 0
-197 223 0
-198 223 0
196 197 198 -223 0
220 -223 -224 0
-220 223 -224 0
-220 -223 224 0
220 223 224 0
-10 224 0
196 225 0
197 225 0
198 225 0
-196 -197 -198 -225 0
-220 225 -226 0
220 -225 -226 0
226 -225 -220 0
220 225 226 0
-13 -226 0
197 -227 -228 0
227 -197 -228 0
-197 -227 228 0
197 227 228 0
-4 -228 0
227 -198 -229 0
198 -227 -229 0
229 -227 -198 0
229 227 198 0
-7 229 0
-197 230 0
-198 230 0
197 198 -230 0
227 -230 -231 0
-227 230 -231 0
-227 -230 231 0
227 230 231 0
-10 231 0
197 232 0
198 232 0
-197 -198 -232 0
-227 232 -233 0
227 -232 -233 0
233 -232 -227 0
227 232 233 0
-13 -233 0
198 -234 -235 0
234 -198 -235 0
-198 -234 235 0
198 234 235 0
-4 -235 0
-197 234 -236 0
197 -234 -236 0
236 -234 -197 0
236 234 197 0
-7 236 0
234 -230 -237 0
230 -234 -237 0
-230 -234 237 0
234 230 237 0
-10 237 0
232 -234 -238 0
234 -232 -238 0
238 -232 -234 0
234 232 238 0
-13 -238 0
239 -240 -241 0
240 -239 -241 0
-239 -240 241 0
240 239 241 0
-4 -241 0
240 -242 -243 0
242 -240 -243 0
243 -240 -242 0
243 240 242 0
-7 243 0
-239 244 0
-242 244 0
-245 244 0
-246 244 0
-247 244 0
239 242 245 246 247 -244 0
240 -244 -248 0
-240 244 -248 0
-240 -244 248 0
240 244 248 0
-10 248 0
239 249 0
242 249 0
245 249 0
246 249 0
247 249 0
-250 0
-240 249 -251 0
240 -249 -251 0
251 -249 -240 0
240 249 251 0
-13 -251 0
242 -252 -253 0
252 -242 -253 0
-242 -252 253 0
242 252 253 0
-4 -253 0
252 -245 -254 0
245 -252 -254 0
254 -252 -245 0
254 252 245 0
-7 254 0
-242 255 0
-245 255 0
-246 255 0
-247 255 0
242 245 246 247 -255 0
252 -255 -256 0
-252 255 -256 0
-252 -255 256 0
252 255 256 0
-10 256 0
242 257 0
245 257 0
246 257 0
247 257 0
-258 0
-252 257 -259 0
252 -257 -259 0
259 -257 -252 0
252 257 259 0
-13 -259 0
245 -260 -261 0
260 -245 -261 0
-245 -260 261 0
245 260 261 0
-4 -261 0
260 -246 -262 0
246 -260 -262 0
262 -260 -246 0
262 260 246 0
-7 262 0
260 -255 -263 0
255 -260 -263 0
-255 -260 263 0
260 255 263 0
-10 263 0
257 -260 -264 0
260 -257 -264 0
264 -257 -260 0
260 257 264 0
-13 -264 0
246 -265 -266 0
265 -246 -266 0
-246 -265 266 0
246 265 266 0
-4 -266 0
265 -247 -267 0
247 -265 -267 0
267 -265 -247 0
267 265 247 0
-7 267 0
265 -255 -268 0
255 -265 -268 0
-255 -265 268 0
265 255 268 0
-10 268 0
257 -265 -269 0
265 -257 -269 0
269 -257 -265 0
265 257 269 0
-13 -269 0
247 -270 -271 0
270 -247 -271 0
-247 -270 271 0
247 270 271 0
-4 -271 0
-242 270 -272 0
242 -270 -272 0
272 -270 -242 0
272 270 242 0
-7 272 0
270 -255 -273 0
255 -270 -273 0
-255 -270 273 0
270 255 273 0
-10 273 0
257 -270 -274 0
270 -257 -274 0
274 -257 -270 0
270 257 274 0
-13 -274 0
275 -276 -277 0
276 -275 -277 0
-275 -276 277 0
276 275 277 0
-4 -277 0
276 -278 -279 0
278 -276 -279 0
279 -276 -278 0
279 276 278 0
-7 279 0
-275 280 0
-278 280 0
-281 280 0
-282 280 0
-283 280 0
275 278 281 282 283 -280 0
276 -280 -284 0
-276 280 -284 0
-276 -280 284 0
276 280 284 0
-10 284 0
275 285 0
278 285 0
281 285 0
282 285 0
283 285 0
-286 0
-276 285 -287 0
276 -285 -287 0
287 -285 -276 0
276 285 287 0
-13 -287 0
278 -288 -289 0
288 -278 -289 0
-278 -288 289 0
278 288 289 0
-4 -289 0
288 -281 -290 0
281 -288 -290 0
290 -288 -281 0
290 288 281 0
-7 290 0
-278 291 0
-281 291 0
-282 291 0
-283 291 0
278 281 282 283 -291 0
288 -291 -292 0
-288 291 -292 0
-288 -291 292 0
288 291 292 0
-10 292 0
278 293 0
281 293 0
282 293 0
283 293 0
-294 0
-288 293 -295 0
288 -293 -295 0
295 -293 -288 0
288 293 295 0
-13 -295 0
281 -296 -297 0
296 -281 -297 0
-281 -296 297 0
281 296 297 0
-4 -297 0
296 -282 -298 0
282 -296 -298 0
298 -296 -282 0
298 296 282 0
-7 298 0
-281 299 0
-282 299 0
-283 299 0
281 282 283 -299 0
296 -299 -300 0
-296 299 -300 0
-296 -299 300 0
296 299 300 0
-10 300 0
281 301 0
282 301 0
283 301 0
-281 -282 -283 -301 0
-296 301 -302 0
296 -301 -302 0
302 -301 -296 0
296 301 302 0
-13 -302 0
282 -303 -304 0
303 -282 -304 0
-282 -303 304 0
282 303 304 0
-4 -304 0
303 -283 -305 0
283 -303 -305 0
305 -303 -283 0
305 303 283 0
-7 305 0
303 -299 -306 0
299 -303 -306 0
-299 -303 306 0
303 299 306 0
-10 306 0
301 -303 -307 0
303 -301 -307 0
307 -301 -303 0
303 301 307 0
-13 -307 0
283 -308 -309 0
308 -283 -309 0
-283 -308 309 0
283 308 309 0
-4 -309 0
-281 308 -310 0
281 -308 -310 0
310 -308 -281 0
310 308 281 0
-7 310 0
308 -299 -311 0
299 -308 -311 0
-299 -308 311 0
308 299 311 0
-10 311 0
301 -308 -312 0
308 -301 -312 0
312 -301 -308 0
308 301 312 0
-13 -312 0
313 -314 -315 0
314 -313 -315 0
-313 -314 315 0
314 313 315 0
-4 -315 0
314 -316 -317 0
316 -314 -317 0
317 -314 -316 0
317 314 316 0
-7 317 0
-313 318 0
-316 318 0
-319 318 0
-320 318 0
-321 318 0
-322 318 0
-323 318 0
324 0
314 -318 -325 0
-314 318 -325 0
-314 -318 325 0
314 318 325 0
-10 325 0
313 326 0
316 326 0
319 326 0
320 326 0
321 326 0
322 326 0
323 326 0
-327 0
-314 326 -328 0
314 -326 -328 0
328 -326 -314 0
314 326 328 0
-13 -328 0
316 -329 -330 0
329 -316 -330 0
-316 -329 330 0
316 329 330 0
-4 -330 0
329 -319 -331 0
319 -329 -331 0
331 -329 -319 0
331 329 319 0
-7 331 0
-316 332 0
-319 332 0
-320 332 0
-321 332 0
-322 332 0
-323 332 0
333 0
329 -332 -334 0
-329 332 -334 0
-329 -332 334 0
329 332 334 0
-10 334 0
316 335 0
319 335 0
320 335 0
321 335 0
322 335 0
323 335 0
-336 0
-329 335 -337 0
329 -335 -337 0
337 -335 -329 0
329 335 337 0
-13 -337 0
319 -338 -339 0
338 -319 -339 0
-319 -338 339 0
319 338 339 0
-4 -339 0
338 -320 -340 0
320 -338 -340 0
340 -338 -320 0
340 338 320 0
-7 340 0
-319 341 0
-320 341 0
-321 341 0
-322 341 0
-323 341 0
319 320 321 322 323 -341 0
338 -341 -342 0
-338 341 -342 0
-338 -341 342 0
338 341 342 0
-10 342 0
319 343 0
320 343 0
321 343 0
322 343 0
323 343 0
-344 0
-338 343 -345 0
338 -343 -345 0
345 -343 -338 0
338 343 345 0
-13 -345 0
320 -346 -347 0
346 -320 -347 0
-320 -346 347 0
320 346 347 0
-4 -347 0
346 -321 -348 0
321 -346 -348 0
348 -346 -321 0
348 346 321 0
-7 348 0
-320 349 0
-321 349 0
-322 349 0
-323 349 0
320 321 322 323 -349 0
346 -349 -350 0
-346 349 -350 0
-346 -349 350 0
346 349 350 0
-10 350 0
320 351 0
321 351 0
322 351 0
323 351 0
-352 0
-346 351 -353 0
346 -351 -353 0
353 -351 -346 0
346 351 353 0
-13 -353 0
321 -354 -355 0
354 -321 -355 0
-321 -354 355 0
321 354 355 0
-4 -355 0
354 -322 -356 0
322 -354 -356 0
356 -354 -322 0
356 354 322 0
-7 356 0
-321 357 0
-322 357 0
-323 357 0
321 322 323 -357 0
354 -357 -358 0
-354 357 -358 0
-354 -357 358 0
354 357 358 0
-10 358 0
321 359 0
322 359 0
323 359 0
-321 -322 -323 -359 0
-354 359 -360 0
354 -359 -360 0
360 -359 -354 0
354 359 360 0
-13 -360 0
322 -361 -362 0
361 -322 -362 0
-322 -361 362 0
322 361 362 0
-4 -362 0
361 -323 -363 0
323 -361 -363 0
363 -361 -323 0
363 361 323 0
-7 363 0
361 -357 -364 0
357 -361 -364 0
-357 -361 364 0
361 357 364 0
-10 364 0
359 -361 -365 0
361 -359 -365 0
365 -359 -361 0
361 359 365 0
-13 -365 0
323 -366 -367 0
366 -323 -367 0
-323 -366 367 0
323 366 367 0
-4 -367 0
-321 366 -368 0
321 -366 -368 0
368 -366 -321 0
368 366 321 0
-7 368 0
366 -357 -369 0
357 -366 -369 0
-357 -366 369 0
366 357 369 0
-10 369 0
359 -366 -370 0
366 -359 -370 0
370 -359 -366 0
366 359 370 0
-13 -370 0
371 -372 -373 0
372 -371 -373 0
-371 -372 373 0
372 371 373 0
-4 -373 0
372 -374 -375 0
374 -372 -375 0
375 -372 -374 0
375 372 374 0
-7 375 0
-371 376 0
-374 376 0
-377 376 0
-378 376 0
-379 376 0
371 374 377 378 379 -376 0
372 -376 -380 0
-372 376 -380 0
-372 -376 380 0
372 376 380 0
-10 380 0
371 381 0
374 381 0
377 381 0
378 381 0
379 381 0
-382 0
-372 381 -383 0
372 -381 -383 0
383 -381 -372 0
372 381 383 0
-13 -383 0
374 -384 -385 0
384 -374 -385 0
-374 -384 385 0
374 384 385 0
-4 -385 0
384 -377 -386 0
377 -384 -386 0
386 -384 -377 0
386 384 377 0
-7 386 0
-374 387 0
-377 387 0
-378 387 0
-379 387 0
374 377 378 379 -387 0
384 -387 -388 0
-384 387 -388 0
-384 -387 388 0
384 387 388 0
-10 388 0
374 389 0
377 389 0
378 389 0
379 389 0
-390 0
-384 389 -391 0
384 -389 -391 0
391 -389 -384 0
384 389 391 0
-13 -391 0
377 -392 -393 0
392 -377 -393 0
-377 -392 393 0
377 392 393 0
-4 -393 0
392 -378 -394 0
378 -392 -394 0
394 -392 -378 0
394 392 378 0
-7 394 0
-377 395 0
-378 395 0
-379 395 0
377 378 379 -395 0
392 -395 -396 0
-392 395 -396 0
-392 -395 396 0
392 395 396 0
-10 396 0
377 397 0
378 397 0
379 397 0
-377 -378 -379 -397 0
-392 397 -398 0
392 -397 -398 0
398 -397 -392 0
392 397 398 0
-13 -398 0
378 -399 -400 0
399 -378 -400 0
-378 -399 400 0
378 399 400 0
-4 -400 0
399 -379 -401 0
379 -399 -401 0
401 -399 -379 0
401 399 379 0
-7 401 0
-378 402 0
-379 402 0
378 379 -402 0
399 -402 -403 0
-399 402 -403 0
-399 -402 403 0
399 402 403 0
-10 403 0
378 404 0
379 404 0
-378 -379 -404 0
-399 404 -405 0
399 -404 -405 0
405 -404 -399 0
399 404 405 0
-13 -405 0
379 -406 -407 0
406 -379 -407 0
-379 -406 407 0
379 406 407 0
-4 -407 0
-378 406 -408 0
378 -406 -408 0
408 -406 -378 0
408 406 378 0
-7 408 0
406 -402 -409 0
402 -406 -409 0
-402 -406 409 0
406 402 409 0
-10 409 0
404 -406 -410 0
406 -404 -410 0
410 -404 -406 0
406 404 410 0
-13 -410 0
411 -412 -413 0
412 -411 -413 0
-411 -412 413 0
412 411 413 0
-4 -413 0
412 -411 -414 0
411 -412 -414 0
414 -412 -411 0
414 412 411 0
-7 414 0
-10 414 0
-13 414 0
415 -416 -417 0
416 -415 -417 0
-415 -416 417 0
416 415 417 0
-4 -417 0
416 -415 -418 0
415 -416 -418 0
418 -416 -415 0
418 416 415 0
-7 418 0
-10 418 0
-13 418 0
419 -420 -421 0
420 -419 -421 0
-419 -420 421 0
420 419 421 0
-4 -421 0
420 -419 -422 0
419 -420 -422 0
422 -420 -419 0
422 420 419 0
-7 422 0
-10 422 0
-13 422 0
423 -424 -425 0
424 -423 -425 0
-423 -424 425 0
424 423 425 0
-4 -425 0
424 -423 -426 0
423 -424 -426 0
426 -424 -423 0
426 424 423 0
-7 426 0
-10 426 0
-13 426 0
427 -428 -429 0
428 -427 -429 0
-427 -428 429 0
428 427 429 0
-4 -429 0
428 -427 -430 0
427 -428 -430 0
430 -428 -427 0
430 428 427 0
-7 430 0
-10 430 0
-13 430 0
431 -432 -433 0
432 -431 -433 0
-431 -432 433 0
432 431 433 0
-4 -433 0
432 -431 -434 0
431 -432 -434 0
434 -432 -431 0
434 432 431 0
-7 434 0
-10 434 0
-13 434 0
435 -436 -437 0
436 -435 -437 0
-435 -436 437 0
436 435 437 0
-4 -437 0
436 -435 -438 0
435 -436 -438 0
438 -436 -435 0
438 436 435 0
-7 438 0
-10 438 0
-13 438 0
439 -440 -441 0
440 -439 -441 0
-439 -440 441 0
440 439 441 0
-4 -441 0
440 -439 -442 0
439 -440 -442 0
442 -440 -439 0
442 440 439 0
-7 442 0
-10 442 0
-13 442 0
443 -444 -445 0
444 -443 -445 0
-443 -444 445 0
444 443 445 0
-4 -445 0
444 -443 -446 0
443 -444 -446 0
446 -444 -443 0
446 444 443 0
-7 446 0
-10 446 0
-13 446 0
447 -448 -449 0
448 -447 -449 0
-447 -448 449 0
448 447 449 0
-4 -449 0
448 -447 -450 0
447 -448 -450 0
450 -448 -447 0
450 448 447 0
-7 450 0
-10 450 0
-13 450 0
4 7 10 13 0
-4 -7 0
-4 -10 0
-4 -13 0
-7 -10 0
-7 -13 0
-10 -13 0
1 0
-5 0
-19 0
-22 0
25 0
-26 0
27 0
-28 0
-29 0
75 0
78 0
-81 0
82 0
83 0
-84 0
85 0
131 0
134 0
-137 0
151 0
-154 0
-157 0
-158 0
159 0
-189 0
-192 0
-195 0
196 0
197 0
-198 0
-239 0
242 0
245 0
-246 0
247 0
275 0
-278 0
-281 0
-282 0
283 0
-313 0
-316 0
-319 0
320 0
321 0
-322 0
-323 0
371 0
-374 0
-377 0
-378 0
379 0
-411 0
-415 0
-419 0
-423 0
-427 0
-431 0
-435 0
-439 0
-443 0
-447 0
2 0
20 0
76 0
132 0
152 0
190 0
240 0
276 0
314 0
372 0
-412 0
-416 0
-420 0
-424 0
-428 0
-432 0
-436 0
-440 0
-444 0
-448 0
